p cnf 20 50
19 -10 0
9 2 2 -1 7 0
5 13 15 4 0
-12 -3 20 0
15 0
-3 -20 3 0
-18 6 12 15 0
11 -12 -15 18 0
2 0
2 -19 0
-18 0
10 16 16 -11 10 0
-15 12 17 0
17 -17 0
7 -5 1 0
15 -13 0
-8 4 3 9 0
-6 4 -8 -8 0
-7 -7 -13 0
8 20 0
-11 -5 -11 0
-8 -12 0
19 7 -2 0
-18 -13 16 -15 -20 0
18 16 0
-17 -15 0
10 -20 -2 0
-11 6 -9 -3 0
-7 1 -9 0
1 0
-5 -19 7 0
11 -13 -16 13 6 0
12 -1 -3 5 14 0
-3 2 20 0
17 11 -12 0
1 -19 -4 0
-10 1 15 0
-4 8 -1 0
-11 -13 13 -5 -17 0
-5 -4 -6 -9 0
8 0
-15 -1 0
-18 5 0
-16 -8 0
1 12 0
13 1 11 0
-20 -15 -18 12 0
14 12 5 12 5 0
-9 2 11 0
2 2 -19 0
